p cnf 386 460
5 -1 -7 21 22 0
5 -1 -7 21 -22 0
5 -1 -7 -21 23 0
5 -1 -7 -21 -23 0
6 -16 15 24 25 0
6 -16 15 24 -25 0
6 -16 15 -24 26 0
6 -16 15 -24 -26 0
8 -19 4 27 28 0
8 -19 4 27 -28 0
8 -19 4 -27 29 0
8 -19 4 -27 -29 0
-14 -15 8 30 31 0
-14 -15 8 30 -31 0
-14 -15 8 -30 32 0
-14 -15 8 -30 -32 0
-1 2 -14 33 34 0
-1 2 -14 33 -34 0
-1 2 -14 -33 35 0
-1 2 -14 -33 -35 0
1 -7 -19 36 37 0
1 -7 -19 36 -37 0
1 -7 -19 -36 38 0
1 -7 -19 -36 -38 0
-1 16 8 39 40 0
-1 16 8 39 -40 0
-1 16 8 -39 41 0
-1 16 8 -39 -41 0
4 -10 -5 42 43 0
4 -10 -5 42 -43 0
4 -10 -5 -42 44 0
4 -10 -5 -42 -44 0
-10 -13 15 45 46 0
-10 -13 15 45 -46 0
-10 -13 15 -45 47 0
-10 -13 15 -45 -47 0
-7 13 -11 48 49 0
-7 13 -11 48 -49 0
-7 13 -11 -48 50 0
-7 13 -11 -48 -50 0
-18 11 16 51 52 0
-18 11 16 51 -52 0
-18 11 16 -51 53 0
-18 11 16 -51 -53 0
-18 4 17 54 55 0
-18 4 17 54 -55 0
-18 4 17 -54 56 0
-18 4 17 -54 -56 0
16 -17 7 57 58 0
16 -17 7 57 -58 0
16 -17 7 -57 59 0
16 -17 7 -57 -59 0
13 9 1 60 61 0
13 9 1 60 -61 0
13 9 1 -60 62 0
13 9 1 -60 -62 0
-15 14 -20 63 64 0
-15 14 -20 63 -64 0
-15 14 -20 -63 65 0
-15 14 -20 -63 -65 0
12 -14 -10 66 67 0
12 -14 -10 66 -67 0
12 -14 -10 -66 68 0
12 -14 -10 -66 -68 0
-16 9 2 69 70 0
-16 9 2 69 -70 0
-16 9 2 -69 71 0
-16 9 2 -69 -71 0
14 -18 -5 72 73 0
14 -18 -5 72 -73 0
14 -18 -5 -72 74 0
14 -18 -5 -72 -74 0
7 12 9 75 76 0
7 12 9 75 -76 0
7 12 9 -75 77 0
7 12 9 -75 -77 0
-17 16 3 78 79 0
-17 16 3 78 -79 0
-17 16 3 -78 80 0
-17 16 3 -78 -80 0
-9 1 -20 81 82 0
-9 1 -20 81 -82 0
-9 1 -20 -81 83 0
-9 1 -20 -81 -83 0
-16 -4 -19 84 85 0
-16 -4 -19 84 -85 0
-16 -4 -19 -84 86 0
-16 -4 -19 -84 -86 0
5 10 -17 87 88 0
5 10 -17 87 -88 0
5 10 -17 -87 89 0
5 10 -17 -87 -89 0
-9 17 8 90 91 0
-9 17 8 90 -91 0
-9 17 8 -90 92 0
-9 17 8 -90 -92 0
7 -20 -4 93 94 0
7 -20 -4 93 -94 0
7 -20 -4 -93 95 0
7 -20 -4 -93 -95 0
-16 5 13 96 97 0
-16 5 13 96 -97 0
-16 5 13 -96 98 0
-16 5 13 -96 -98 0
6 -18 -5 99 100 0
6 -18 -5 99 -100 0
6 -18 -5 -99 101 0
6 -18 -5 -99 -101 0
-4 19 -10 102 103 0
-4 19 -10 102 -103 0
-4 19 -10 -102 104 0
-4 19 -10 -102 -104 0
-16 -4 -13 105 106 0
-16 -4 -13 105 -106 0
-16 -4 -13 -105 107 0
-16 -4 -13 -105 -107 0
-19 16 10 108 109 0
-19 16 10 108 -109 0
-19 16 10 -108 110 0
-19 16 10 -108 -110 0
1 2 -3 111 112 0
1 2 -3 111 -112 0
1 2 -3 -111 113 0
1 2 -3 -111 -113 0
6 -11 -14 114 115 0
6 -11 -14 114 -115 0
6 -11 -14 -114 116 0
6 -11 -14 -114 -116 0
-15 14 -20 117 118 0
-15 14 -20 117 -118 0
-15 14 -20 -117 119 0
-15 14 -20 -117 -119 0
10 13 9 120 121 0
10 13 9 120 -121 0
10 13 9 -120 122 0
10 13 9 -120 -122 0
7 1 18 123 124 0
7 1 18 123 -124 0
7 1 18 -123 125 0
7 1 18 -123 -125 0
3 9 -5 126 127 0
3 9 -5 126 -127 0
3 9 -5 -126 128 0
3 9 -5 -126 -128 0
-5 16 -2 129 130 0
-5 16 -2 129 -130 0
-5 16 -2 -129 131 0
-5 16 -2 -129 -131 0
-11 16 -9 132 133 0
-11 16 -9 132 -133 0
-11 16 -9 -132 134 0
-11 16 -9 -132 -134 0
-6 20 -11 135 136 0
-6 20 -11 135 -136 0
-6 20 -11 -135 137 0
-6 20 -11 -135 -137 0
-2 -15 16 138 139 0
-2 -15 16 138 -139 0
-2 -15 16 -138 140 0
-2 -15 16 -138 -140 0
3 19 12 141 142 0
3 19 12 141 -142 0
3 19 12 -141 143 0
3 19 12 -141 -143 0
19 8 -16 144 145 0
19 8 -16 144 -145 0
19 8 -16 -144 146 0
19 8 -16 -144 -146 0
16 17 13 147 148 0
16 17 13 147 -148 0
16 17 13 -147 149 0
16 17 13 -147 -149 0
2 13 12 150 151 0
2 13 12 150 -151 0
2 13 12 -150 152 0
2 13 12 -150 -152 0
8 4 2 153 154 0
8 4 2 153 -154 0
8 4 2 -153 155 0
8 4 2 -153 -155 0
-11 20 -16 156 157 0
-11 20 -16 156 -157 0
-11 20 -16 -156 158 0
-11 20 -16 -156 -158 0
-17 -11 13 159 160 0
-17 -11 13 159 -160 0
-17 -11 13 -159 161 0
-17 -11 13 -159 -161 0
-13 14 2 162 163 0
-13 14 2 162 -163 0
-13 14 2 -162 164 0
-13 14 2 -162 -164 0
17 -14 -5 165 166 0
17 -14 -5 165 -166 0
17 -14 -5 -165 167 0
17 -14 -5 -165 -167 0
-15 -8 -18 168 169 0
-15 -8 -18 168 -169 0
-15 -8 -18 -168 170 0
-15 -8 -18 -168 -170 0
-1 5 -17 171 172 0
-1 5 -17 171 -172 0
-1 5 -17 -171 173 0
-1 5 -17 -171 -173 0
14 -20 11 174 175 0
14 -20 11 174 -175 0
14 -20 11 -174 176 0
14 -20 11 -174 -176 0
-15 8 1 177 178 0
-15 8 1 177 -178 0
-15 8 1 -177 179 0
-15 8 1 -177 -179 0
20 1 -15 180 181 0
20 1 -15 180 -181 0
20 1 -15 -180 182 0
20 1 -15 -180 -182 0
-19 4 -2 183 184 0
-19 4 -2 183 -184 0
-19 4 -2 -183 185 0
-19 4 -2 -183 -185 0
-14 2 -11 186 187 0
-14 2 -11 186 -187 0
-14 2 -11 -186 188 0
-14 2 -11 -186 -188 0
-11 -4 1 189 190 0
-11 -4 1 189 -190 0
-11 -4 1 -189 191 0
-11 -4 1 -189 -191 0
-12 8 9 192 193 0
-12 8 9 192 -193 0
-12 8 9 -192 194 0
-12 8 9 -192 -194 0
12 -3 -13 195 196 0
12 -3 -13 195 -196 0
12 -3 -13 -195 197 0
12 -3 -13 -195 -197 0
5 -19 8 198 199 0
5 -19 8 198 -199 0
5 -19 8 -198 200 0
5 -19 8 -198 -200 0
6 17 12 201 202 0
6 17 12 201 -202 0
6 17 12 -201 203 0
6 17 12 -201 -203 0
-15 4 2 204 205 0
-15 4 2 204 -205 0
-15 4 2 -204 206 0
-15 4 2 -204 -206 0
-3 10 16 207 208 0
-3 10 16 207 -208 0
-3 10 16 -207 209 0
-3 10 16 -207 -209 0
-19 -13 8 210 211 0
-19 -13 8 210 -211 0
-19 -13 8 -210 212 0
-19 -13 8 -210 -212 0
3 -18 -11 213 214 0
3 -18 -11 213 -214 0
3 -18 -11 -213 215 0
3 -18 -11 -213 -215 0
-8 -14 3 216 217 0
-8 -14 3 216 -217 0
-8 -14 3 -216 218 0
-8 -14 3 -216 -218 0
-5 -18 -6 219 220 0
-5 -18 -6 219 -220 0
-5 -18 -6 -219 221 0
-5 -18 -6 -219 -221 0
-19 10 11 222 223 0
-19 10 11 222 -223 0
-19 10 11 -222 224 0
-19 10 11 -222 -224 0
2 20 -16 225 226 0
2 20 -16 225 -226 0
2 20 -16 -225 227 0
2 20 -16 -225 -227 0
9 13 14 228 229 0
9 13 14 228 -229 0
9 13 14 -228 230 0
9 13 14 -228 -230 0
-20 6 -12 231 232 0
-20 6 -12 231 -232 0
-20 6 -12 -231 233 0
-20 6 -12 -231 -233 0
11 16 -12 234 235 0
11 16 -12 234 -235 0
11 16 -12 -234 236 0
11 16 -12 -234 -236 0
20 -10 -14 237 238 0
20 -10 -14 237 -238 0
20 -10 -14 -237 239 0
20 -10 -14 -237 -239 0
-8 20 10 240 241 0
-8 20 10 240 -241 0
-8 20 10 -240 242 0
-8 20 10 -240 -242 0
-13 -14 -6 243 244 0
-13 -14 -6 243 -244 0
-13 -14 -6 -243 245 0
-13 -14 -6 -243 -245 0
5 -6 -1 246 247 0
5 -6 -1 246 -247 0
5 -6 -1 -246 248 0
5 -6 -1 -246 -248 0
13 7 6 249 250 0
13 7 6 249 -250 0
13 7 6 -249 251 0
13 7 6 -249 -251 0
3 16 -19 252 253 0
3 16 -19 252 -253 0
3 16 -19 -252 254 0
3 16 -19 -252 -254 0
17 -15 13 255 256 0
17 -15 13 255 -256 0
17 -15 13 -255 257 0
17 -15 13 -255 -257 0
-8 -6 14 258 259 0
-8 -6 14 258 -259 0
-8 -6 14 -258 260 0
-8 -6 14 -258 -260 0
4 5 13 261 262 0
4 5 13 261 -262 0
4 5 13 -261 263 0
4 5 13 -261 -263 0
1 18 15 264 265 0
1 18 15 264 -265 0
1 18 15 -264 266 0
1 18 15 -264 -266 0
11 -3 16 267 268 0
11 -3 16 267 -268 0
11 -3 16 -267 269 0
11 -3 16 -267 -269 0
-2 -9 -17 270 271 0
-2 -9 -17 270 -271 0
-2 -9 -17 -270 272 0
-2 -9 -17 -270 -272 0
15 -3 -16 273 274 0
15 -3 -16 273 -274 0
15 -3 -16 -273 275 0
15 -3 -16 -273 -275 0
15 19 20 276 277 0
15 19 20 276 -277 0
15 19 20 -276 278 0
15 19 20 -276 -278 0
-16 4 2 279 280 0
-16 4 2 279 -280 0
-16 4 2 -279 281 0
-16 4 2 -279 -281 0
11 1 -5 282 283 0
11 1 -5 282 -283 0
11 1 -5 -282 284 0
11 1 -5 -282 -284 0
9 11 -5 285 286 0
9 11 -5 285 -286 0
9 11 -5 -285 287 0
9 11 -5 -285 -287 0
-16 20 -3 288 289 0
-16 20 -3 288 -289 0
-16 20 -3 -288 290 0
-16 20 -3 -288 -290 0
7 2 -17 291 292 0
7 2 -17 291 -292 0
7 2 -17 -291 293 0
7 2 -17 -291 -293 0
294 295 297 301 309 0
294 295 297 301 -309 0
294 295 297 -301 310 0
294 295 297 -301 -310 0
294 295 -297 302 311 0
294 295 -297 302 -311 0
294 295 -297 -302 312 0
294 295 -297 -302 -312 0
294 -295 298 303 313 0
294 -295 298 303 -313 0
294 -295 298 -303 314 0
294 -295 298 -303 -314 0
294 -295 -298 304 315 0
294 -295 -298 304 -315 0
294 -295 -298 -304 316 0
294 -295 -298 -304 -316 0
-294 296 299 305 317 0
-294 296 299 305 -317 0
-294 296 299 -305 318 0
-294 296 299 -305 -318 0
-294 296 -299 306 319 0
-294 296 -299 306 -319 0
-294 296 -299 -306 320 0
-294 296 -299 -306 -320 0
-294 -296 300 307 321 0
-294 -296 300 307 -321 0
-294 -296 300 -307 322 0
-294 -296 300 -307 -322 0
-294 -296 -300 308 323 0
-294 -296 -300 308 -323 0
-294 -296 -300 -308 324 0
-294 -296 -300 -308 -324 0
325 326 328 332 340 0
325 326 328 332 -340 0
325 326 328 -332 341 0
325 326 328 -332 -341 0
325 326 -328 333 342 0
325 326 -328 333 -342 0
325 326 -328 -333 343 0
325 326 -328 -333 -343 0
325 -326 329 334 344 0
325 -326 329 334 -344 0
325 -326 329 -334 345 0
325 -326 329 -334 -345 0
325 -326 -329 335 346 0
325 -326 -329 335 -346 0
325 -326 -329 -335 347 0
325 -326 -329 -335 -347 0
-325 327 330 336 348 0
-325 327 330 336 -348 0
-325 327 330 -336 349 0
-325 327 330 -336 -349 0
-325 327 -330 337 350 0
-325 327 -330 337 -350 0
-325 327 -330 -337 351 0
-325 327 -330 -337 -351 0
-325 -327 331 338 352 0
-325 -327 331 338 -352 0
-325 -327 331 -338 353 0
-325 -327 331 -338 -353 0
-325 -327 -331 339 354 0
-325 -327 -331 339 -354 0
-325 -327 -331 -339 355 0
-325 -327 -331 -339 -355 0
356 357 359 363 371 0
356 357 359 363 -371 0
356 357 359 -363 372 0
356 357 359 -363 -372 0
356 357 -359 364 373 0
356 357 -359 364 -373 0
356 357 -359 -364 374 0
356 357 -359 -364 -374 0
356 -357 360 365 375 0
356 -357 360 365 -375 0
356 -357 360 -365 376 0
356 -357 360 -365 -376 0
356 -357 -360 366 377 0
356 -357 -360 366 -377 0
356 -357 -360 -366 378 0
356 -357 -360 -366 -378 0
-356 358 361 367 379 0
-356 358 361 367 -379 0
-356 358 361 -367 380 0
-356 358 361 -367 -380 0
-356 358 -361 368 381 0
-356 358 -361 368 -381 0
-356 358 -361 -368 382 0
-356 358 -361 -368 -382 0
-356 -358 362 369 383 0
-356 -358 362 369 -383 0
-356 -358 362 -369 384 0
-356 -358 362 -369 -384 0
-356 -358 -362 370 385 0
-356 -358 -362 370 -385 0
-356 -358 -362 -370 386 0
-356 -358 -362 -370 -386 0

